proyfinal/src/viki/013/experimentInOfficeAgust.take6.output/09b5730c-20fa-4963-b512-ccd077152b5b.als.dat
{'cnf.clauses': '118081',
 'cnf.totvars': '69608',
 'conflict literals': '1999',
 'conflicts': '204',
 'decisions': '4350',
 'memused.mb': '20.07',
 'outcome': 'UNSAT',
 'propagations': '274473',
 'restarts': '2',
 'solver.msecs': 40,
 'task.msecs': 83}
