proyfinal/src/viki/013/experimentInOfficeAgust.take6.output/09b5730c-20fa-4963-b512-ccd077152b5b.als.out
Reading from standard input... Use '--help' for help.
============================[ Problem Statistics ]=============================
|                                                                             |
|  Number of variables:         69608                                         |
|  Number of clauses:          118081                                         |
|  Parse time:                   0.02 s                                       |
|                                                                             |
============================[ Search Statistics ]==============================
| Conflicts |          ORIGINAL         |          LEARNT          | Progress |
|           |    Vars  Clauses Literals |    Limit  Clauses Lit/Cl |          |
===============================================================================
|       100 |   57011    82717   204658 |    30329       95     10 | 18.097 % |
===============================================================================
restarts              : 2
conflicts             : 204            (5029 /sec)
decisions             : 4350           (0.00 % random) (107227 /sec)
propagations          : 274473         (6765751 /sec)
conflict literals     : 1999           (29.88 % deleted)
Memory used           : 20.07 MB
CPU time              : 0.040568 s

UNSATISFIABLE
